language ESSENCE' 1.0

letting jobs = 102
letting horizon = 797
letting resourcesRenew = 2
letting resourcesNonrenew = 2
letting resourceLimits = [60, 61, 268, 278]
letting successors = [[2, 3, 4, 5, 6, 7, 8, 9, 10, 11, 12, 13, 14, 15, 16, 17, 18, 20, 23, 26, 27, 40, 43], [58, 49, 48, 47, 45, 44, 41, 39, 38, 37, 34, 21], [58, 47, 44, 41, 37, 34, 33, 31, 30, 22], [58, 49, 48, 45, 44, 42, 41, 35, 34, 32, 24], [58, 54, 41, 39, 37, 35, 31, 30, 22], [58, 55, 46, 42, 32, 28, 25, 21], [58, 50, 49, 48, 41, 38, 37, 36, 35, 34, 33, 32], [58, 54, 51, 44, 42, 41, 35, 34, 31, 30], [54, 50, 46, 45, 41, 34, 32, 29, 25], [63, 56, 54, 53, 50, 49, 48, 45, 44, 42, 41, 37, 36, 34], [63, 58, 57, 49, 48, 41, 32, 24], [56, 54, 53, 51, 41, 39, 19], [63, 59, 58, 57, 56, 54, 50, 48, 38, 37, 34], [68, 67, 60, 59, 57, 55, 54, 49, 38, 37, 35], [82, 74, 68, 67, 60, 59, 54, 44, 37, 35], [63, 58, 55, 54, 51, 50, 38, 32], [74, 73, 68, 67, 63, 60, 59, 57, 56, 54, 53, 51, 48, 47, 38], [68, 67, 62, 60, 59, 57, 55, 54, 51, 49, 48, 35], [73, 70, 63, 62, 59, 50, 49, 48, 44, 34], [67, 63, 60, 55, 54, 53, 52, 38, 36], [74, 67, 54, 51, 50, 36, 35], [67, 63, 61, 60, 56, 55, 53, 52, 45, 36], [82, 70, 68, 67, 63, 62, 60, 59, 56, 55, 52, 51, 44], [70, 68, 60, 59, 55, 54, 50, 37], [74, 63, 61, 53, 52, 49, 48, 36], [75, 73, 72, 67, 64, 62, 44, 41], [69, 57, 54, 51, 41, 34], [75, 73, 72, 69, 67, 65, 64, 54, 41], [74, 63, 61, 52, 51, 36], [78, 74, 67, 61, 48, 36], [77, 73, 68, 64, 62, 61, 59, 56, 50, 49], [74, 68, 67, 65, 61, 59, 56, 53, 52], [82, 78, 75, 72, 70, 68, 67, 66, 59, 54, 51], [82, 75, 68, 67, 66, 65, 64, 61, 60, 55], [78, 73, 72, 70, 65, 63, 61, 56, 53], [101, 100, 75, 73, 72, 70, 68, 66, 64, 62, 59, 57], [75, 66, 64, 62, 61, 52, 51], [96, 82, 78, 75, 72, 70, 66, 65, 64, 62, 61], [101, 79, 76, 75, 63, 57, 52], [82, 74, 66, 63, 59, 52, 51], [100, 82, 79, 76, 74, 70, 68, 66, 60, 59], [82, 75, 71, 66, 61, 52], [93, 79, 78, 76, 70, 69, 66, 57], [77, 76, 69, 66, 61, 57], [101, 100, 98, 94, 93, 88, 81, 78, 76, 75, 74, 73, 70], [101, 97, 95, 93, 88, 79, 77, 76, 72, 71, 69, 66], [95, 94, 93, 88, 77, 76, 66, 65], [98, 97, 96, 95, 94, 91, 89, 88, 84, 82, 76, 75, 71], [101, 97, 96, 95, 93, 92, 88, 87, 81, 79, 72, 66], [100, 98, 88, 82, 80, 79, 78, 72, 69, 65], [99, 97, 96, 95, 94, 93, 91, 90, 89, 88, 80, 77, 76, 71], [96, 94, 93, 92, 89, 88, 81, 80, 78, 77, 73, 72, 69], [100, 97, 96, 95, 93, 91, 89, 88, 86, 79, 76, 75, 69], [95, 90, 84, 81, 79, 76, 61], [99, 98, 93, 92, 90, 88, 84, 80, 79, 74, 71], [96, 94, 88, 85, 81, 76, 75, 66], [98, 96, 95, 94, 89, 88, 80, 65], [98, 96, 93, 90, 84, 80, 64], [97, 96, 94, 93, 92, 90, 84, 80, 71], [99, 96, 92, 90, 89, 88, 85, 78, 77], [101, 100, 97, 93, 91, 89, 88, 87, 85, 80], [99, 95, 93, 91, 89, 88, 84, 81, 80], [100, 99, 97, 91, 90, 89, 84, 81, 80], [94, 91, 89, 88, 87, 86, 85, 76], [97, 90, 84, 83, 71], [99, 98, 91, 89, 86, 84, 80], [92, 91, 90, 88, 85, 77], [98, 93, 88, 86, 85, 84, 83], [90, 87, 85, 84, 83], [92, 85, 77], [87, 85, 81], [86, 84, 83], [91, 86, 85], [96, 89, 83], [90, 80], [92, 83], [84, 83], [95, 87], [94, 85], [83], [86], [93], [102], [102], [102], [102], [102], [102], [102], [102], [102], [102], [102], [102], [102], [102], [102], [102], [102], [102], [102], []]
letting durations = [[0], [3, 5, 8], [2, 2, 4], [2, 2, 6], [2, 2, 7], [2, 4, 7], [1, 2, 4], [1, 2, 7], [5, 8, 8], [8, 9, 10], [4, 5, 10], [7, 8, 9], [4, 5, 6], [6, 8, 9], [4, 5, 9], [2, 6, 9], [5, 6, 7], [2, 7, 9], [1, 5, 9], [2, 5, 7], [3, 5, 10], [3, 9, 10], [7, 8, 9], [3, 5, 6], [2, 3, 8], [5, 8, 9], [2, 7, 9], [3, 4, 6], [5, 6, 7], [2, 4, 6], [4, 6, 10], [4, 5, 6], [3, 4, 10], [2, 7, 8], [1, 1, 8], [4, 7, 10], [3, 5, 9], [2, 7, 9], [2, 2, 10], [7, 7, 8], [1, 5, 7], [7, 8, 10], [2, 7, 7], [3, 3, 8], [4, 5, 6], [1, 2, 8], [5, 6, 8], [5, 6, 10], [4, 9, 10], [2, 7, 8], [5, 6, 7], [1, 6, 7], [4, 8, 9], [2, 5, 7], [2, 3, 6], [1, 5, 7], [2, 4, 9], [2, 2, 6], [3, 4, 4], [1, 2, 6], [1, 7, 10], [3, 5, 8], [1, 4, 6], [9, 10, 10], [5, 6, 7], [2, 6, 8], [7, 8, 10], [4, 5, 7], [6, 6, 9], [3, 7, 9], [6, 8, 10], [3, 3, 5], [5, 6, 6], [2, 4, 8], [1, 9, 10], [1, 9, 10], [1, 4, 8], [1, 2, 3], [1, 7, 10], [8, 9, 10], [3, 4, 8], [4, 5, 6], [3, 4, 7], [5, 8, 8], [2, 3, 9], [5, 6, 7], [4, 6, 7], [4, 8, 10], [2, 3, 9], [5, 6, 8], [1, 8, 9], [1, 3, 6], [5, 7, 9], [5, 8, 9], [4, 4, 8], [5, 7, 9], [2, 5, 9], [1, 5, 6], [5, 6, 10], [2, 5, 8], [1, 2, 8], [0]]
letting resourceUsage = [[[0, 0, 0, 0]], [[3, 3, 8, 0], [3, 2, 0, 3], [3, 2, 0, 2]], [[4, 3, 9, 0], [2, 3, 0, 7], [1, 3, 0, 5]], [[5, 4, 0, 7], [4, 4, 8, 0], [3, 4, 0, 4]], [[5, 4, 6, 0], [5, 3, 0, 3], [5, 3, 6, 0]], [[5, 1, 8, 0], [4, 1, 0, 6], [4, 1, 0, 5]], [[3, 4, 0, 5], [3, 2, 0, 5], [1, 2, 0, 3]], [[3, 5, 0, 6], [2, 4, 0, 6], [2, 4, 4, 0]], [[3, 5, 0, 5], [3, 4, 5, 0], [3, 4, 0, 1]], [[1, 1, 9, 0], [1, 1, 0, 4], [1, 1, 0, 3]], [[4, 3, 0, 8], [4, 2, 4, 0], [3, 2, 0, 5]], [[4, 5, 3, 0], [4, 3, 3, 0], [4, 2, 1, 0]], [[2, 2, 9, 0], [2, 2, 0, 10], [1, 2, 8, 0]], [[5, 2, 0, 6], [4, 2, 0, 5], [3, 2, 7, 0]], [[4, 3, 7, 0], [3, 2, 0, 7], [3, 2, 3, 0]], [[4, 5, 0, 6], [2, 3, 0, 5], [1, 3, 2, 0]], [[1, 2, 8, 0], [1, 2, 0, 3], [1, 2, 6, 0]], [[5, 4, 0, 3], [4, 4, 9, 0], [3, 4, 8, 0]], [[3, 4, 0, 5], [3, 3, 6, 0], [3, 3, 3, 0]], [[2, 3, 7, 0], [2, 3, 0, 4], [1, 1, 0, 2]], [[3, 3, 7, 0], [2, 3, 0, 7], [2, 3, 5, 0]], [[3, 5, 0, 8], [2, 4, 6, 0], [1, 4, 0, 8]], [[2, 4, 9, 0], [2, 3, 7, 0], [1, 2, 0, 3]], [[1, 3, 4, 0], [1, 2, 4, 0], [1, 1, 4, 0]], [[4, 4, 0, 4], [4, 3, 7, 0], [4, 3, 0, 1]], [[3, 5, 0, 3], [2, 4, 0, 2], [2, 2, 0, 1]], [[4, 5, 6, 0], [3, 5, 4, 0], [3, 5, 0, 3]], [[3, 3, 0, 5], [1, 3, 0, 3], [1, 2, 0, 3]], [[2, 3, 0, 2], [1, 2, 0, 2], [1, 2, 0, 1]], [[3, 4, 0, 7], [2, 4, 0, 3], [2, 2, 0, 3]], [[5, 5, 10, 0], [5, 5, 0, 3], [5, 5, 0, 2]], [[5, 2, 6, 0], [3, 2, 6, 0], [2, 2, 4, 0]], [[4, 4, 0, 4], [4, 4, 0, 3], [4, 3, 0, 2]], [[3, 4, 9, 0], [3, 3, 4, 0], [3, 3, 2, 0]], [[1, 3, 5, 0], [1, 2, 0, 8], [1, 1, 4, 0]], [[4, 3, 7, 0], [3, 2, 0, 8], [2, 2, 0, 8]], [[4, 4, 0, 9], [4, 4, 0, 7], [4, 4, 0, 6]], [[2, 3, 9, 0], [2, 3, 0, 1], [2, 2, 0, 1]], [[3, 4, 9, 0], [3, 3, 0, 3], [2, 3, 0, 1]], [[4, 3, 10, 0], [4, 3, 0, 9], [4, 2, 10, 0]], [[3, 3, 8, 0], [1, 3, 6, 0], [1, 2, 0, 1]], [[2, 2, 6, 0], [2, 2, 0, 7], [2, 2, 4, 0]], [[3, 4, 8, 0], [3, 2, 8, 0], [2, 2, 0, 1]], [[4, 3, 1, 0], [3, 2, 2, 0], [3, 2, 1, 0]], [[2, 4, 2, 0], [1, 3, 2, 0], [1, 3, 1, 0]], [[3, 3, 5, 0], [3, 2, 0, 6], [2, 2, 2, 0]], [[4, 3, 10, 0], [4, 3, 9, 0], [4, 3, 0, 4]], [[4, 4, 3, 0], [4, 4, 0, 6], [2, 4, 0, 5]], [[3, 1, 0, 7], [3, 1, 0, 6], [2, 1, 0, 5]], [[1, 3, 0, 7], [1, 2, 0, 5], [1, 2, 2, 0]], [[4, 2, 3, 0], [3, 2, 4, 0], [3, 2, 3, 0]], [[1, 1, 0, 8], [1, 1, 0, 6], [1, 1, 0, 4]], [[3, 3, 7, 0], [3, 2, 0, 2], [2, 2, 4, 0]], [[3, 3, 0, 4], [3, 2, 5, 0], [3, 2, 4, 0]], [[3, 5, 0, 8], [2, 4, 0, 6], [1, 4, 0, 4]], [[5, 2, 0, 5], [5, 2, 0, 4], [5, 2, 0, 3]], [[4, 4, 0, 10], [4, 3, 4, 0], [3, 3, 4, 0]], [[4, 2, 7, 0], [3, 2, 0, 8], [2, 2, 0, 7]], [[3, 2, 8, 0], [3, 2, 0, 9], [3, 2, 7, 0]], [[4, 2, 0, 9], [4, 1, 0, 6], [4, 1, 0, 4]], [[3, 5, 10, 0], [2, 3, 9, 0], [1, 3, 9, 0]], [[5, 5, 7, 0], [2, 4, 4, 0], [1, 4, 4, 0]], [[4, 4, 0, 9], [2, 4, 0, 8], [2, 4, 5, 0]], [[2, 1, 0, 7], [2, 1, 0, 5], [2, 1, 1, 0]], [[4, 4, 0, 5], [4, 3, 4, 0], [3, 3, 0, 5]], [[2, 4, 0, 6], [2, 4, 2, 0], [2, 3, 2, 0]], [[1, 2, 0, 6], [1, 2, 0, 5], [1, 2, 2, 0]], [[5, 4, 3, 0], [3, 4, 0, 3], [2, 3, 1, 0]], [[3, 5, 10, 0], [2, 4, 0, 3], [2, 3, 0, 3]], [[2, 2, 0, 4], [2, 1, 4, 0], [1, 1, 2, 0]], [[1, 4, 5, 0], [1, 3, 0, 2], [1, 1, 0, 2]], [[3, 3, 5, 0], [3, 2, 0, 7], [2, 2, 2, 0]], [[4, 5, 0, 5], [4, 5, 0, 4], [4, 5, 2, 0]], [[1, 5, 4, 0], [1, 4, 2, 0], [1, 4, 0, 8]], [[3, 4, 0, 8], [3, 4, 7, 0], [3, 2, 0, 4]], [[4, 5, 0, 9], [3, 4, 6, 0], [2, 4, 3, 0]], [[5, 2, 0, 6], [4, 2, 4, 0], [4, 1, 0, 4]], [[2, 3, 8, 0], [1, 2, 0, 7], [1, 2, 0, 3]], [[4, 3, 8, 0], [4, 2, 6, 0], [3, 2, 0, 6]], [[2, 2, 8, 0], [2, 1, 6, 0], [2, 1, 1, 0]], [[3, 4, 0, 5], [3, 4, 0, 3], [2, 4, 0, 1]], [[1, 3, 0, 8], [1, 2, 6, 0], [1, 2, 5, 0]], [[5, 4, 6, 0], [3, 4, 6, 0], [1, 4, 6, 0]], [[3, 3, 0, 4], [2, 2, 7, 0], [2, 2, 0, 3]], [[2, 4, 7, 0], [2, 4, 0, 8], [1, 4, 0, 8]], [[5, 2, 0, 8], [3, 1, 0, 5], [2, 1, 1, 0]], [[5, 1, 0, 10], [4, 1, 0, 9], [4, 1, 0, 8]], [[5, 5, 3, 0], [4, 5, 0, 4], [3, 5, 3, 0]], [[2, 1, 0, 5], [2, 1, 0, 4], [2, 1, 2, 0]], [[3, 2, 0, 2], [3, 2, 3, 0], [2, 2, 0, 1]], [[5, 2, 4, 0], [3, 1, 4, 0], [2, 1, 4, 0]], [[5, 4, 7, 0], [5, 3, 0, 7], [5, 2, 0, 7]], [[3, 3, 6, 0], [3, 2, 0, 6], [1, 2, 0, 3]], [[1, 2, 0, 6], [1, 2, 0, 5], [1, 2, 0, 4]], [[3, 4, 5, 0], [3, 4, 0, 7], [3, 3, 0, 5]], [[5, 2, 0, 9], [4, 2, 0, 6], [3, 2, 6, 0]], [[3, 4, 7, 0], [3, 2, 0, 3], [3, 1, 0, 3]], [[3, 1, 0, 8], [3, 1, 0, 6], [3, 1, 0, 5]], [[4, 2, 10, 0], [4, 1, 0, 2], [4, 1, 0, 1]], [[4, 2, 1, 0], [4, 1, 0, 7], [4, 1, 1, 0]], [[4, 2, 9, 0], [4, 1, 6, 0], [4, 1, 0, 3]], [[0, 0, 0, 0]]]
